Test: fpga12_12_sat.cnf
Options: -no-inverting-opt -sym-var-bump
WARNING: for repeatability, setting FPU to use double precision
============================[ Problem Statistics ]=============================
|                                                                             |
|  Number of symmetries:           32                                         |
|  Number of invertingSyms:         0                                         |
|  Number of variables:           216                                         |
|  Number of clauses:            1128                                         |
|  Parse time:                   0.00 s                                       |
|                                                                             |
============================[ Search Statistics ]==============================
| Conflicts |          ORIGINAL         |          LEARNT          | Progress |
|           |    Vars  Clauses Literals |    Limit  Clauses Lit/Cl |          |
===============================================================================
|       100 |     216     1128     3096 |      413      229     46 |  0.002 % |
|       250 |     216     1128     3096 |      454      295     51 |  0.002 % |
|       475 |     216     1128     3096 |      500      369     58 |  0.002 % |
===============================================================================
restarts              : 6
conflicts             : 723            (60250 /sec)
symconflicts          : 84             (7000 /sec)
decisions             : 1902           (0.00 % random) (158500 /sec)
propagations          : 16252          (1354333 /sec)
sympropagations       : 522            (43500 /sec)
conflict literals     : 42053          (4.12 % deleted)
literals     : 42053          (4.12 % deleted)

HEURISTIC USAGES
random                : 0           
activity w/ lookahead : 0           
activity no lookahead : 0           
original sp           : 1901        
sym count             : 0           

Memory used           : 6.00 MB
CPU time              : 0.012 s

SATISFIABLE
